10J3M/DAT/10J3MUNX-19.dat
10 3
33.7945 5.8133
4.2239 2.0552
15.5674 3.9456
17.2571 4.1542
18.2582 4.273
26.4169 5.1397
24.3028 4.9298
10.517 3.243
18.1731 4.263
9.8553 3.1393
40.9561