10J3M/SOL/10J3MUNX-19.sol
solution status: optimal solution found
objective value:                              59.4554
x#1#3                                               1 	(obj:0)
x#2#1                                               1 	(obj:0)
x#3#1                                               1 	(obj:0)
x#4#1                                               1 	(obj:0)
x#5#2                                               1 	(obj:0)
x#6#2                              0.0286180437522949 	(obj:0)
x#6#3                               0.971381956247705 	(obj:0)
x#7#2                                               1 	(obj:0)
x#8#1                                               1 	(obj:0)
x#9#1                               0.654263719453478 	(obj:0)
x#9#2                               0.345736280546522 	(obj:0)
x#10#2                                              1 	(obj:0)
z                                             59.4554 	(obj:1)
